Geographic Exponential Decay
20 11 3 278 201 2 295 276 314 234 104 45 135 6 268 59 165 115 317 80 128
p edge 320 321
e 0 281 5.0
e 1 130 1.0
e 1 0 1.0
e 2 196 25.0
e 2 240 46.0
e 2 106 45.0
e 2 180 73.0
e 2 82 2.0
e 2 1 60.0
e 3 251 48.0
e 3 308 90.0
e 3 241 47.0
e 3 18 70.0
e 3 250 22.0
e 3 2 20.0
e 4 210 1.0
e 4 3 83.0
e 5 114 3.0
e 5 4 1.0
e 6 282 19.0
e 6 283 98.0
e 6 300 3.0
e 6 271 11.0
e 6 211 25.0
e 6 5 29.0
e 7 181 5.0
e 7 6 80.0
e 8 173 9.0
e 8 7 1.0
e 9 12 2.0
e 9 8 1.0
e 10 207 9.0
e 10 9 11.0
e 11 123 54.0
e 11 203 92.0
e 11 195 37.0
e 11 146 6.0
e 11 216 51.0
e 11 10 5.0
e 13 69 1.0
e 13 11 60.0
e 14 91 1.0
e 14 13 2.0
e 15 222 34.0
e 15 117 17.0
e 15 138 37.0
e 15 14 29.0
e 16 157 5.0
e 16 15 1.0
e 17 186 2.0
e 17 16 4.0
e 19 112 12.0
e 19 17 3.0
e 20 91 17.0
e 21 85 5.0
e 21 19 3.0
e 22 125 7.0
e 22 21 12.0
e 23 79 4.0
e 23 22 6.0
e 24 57 4.0
e 24 23 3.0
e 25 46 3.0
e 25 24 1.0
e 26 272 1.0
e 26 25 5.0
e 27 316 1.0
e 27 26 2.0
e 28 218 1.0
e 28 27 1.0
e 29 251 17.0
e 30 113 1.0
e 30 28 1.0
e 31 311 1.0
e 31 30 5.0
e 32 33 1.0
e 32 31 1.0
e 34 144 1.0
e 34 32 4.0
e 35 304 8.0
e 35 34 4.0
e 36 64 3.0
e 36 35 11.0
e 37 43 7.0
e 37 36 8.0
e 38 309 1.0
e 38 37 4.0
e 39 161 5.0
e 39 38 1.0
e 40 162 1.0
e 40 39 2.0
e 41 237 4.0
e 41 40 2.0
e 42 47 1.0
e 42 41 4.0
e 44 314 95.0
e 44 42 2.0
e 45 206 97.0
e 45 159 69.0
e 45 139 84.0
e 45 72 10.0
e 45 285 43.0
e 45 44 95.0
e 47 92 17.0
e 47 245 16.0
e 48 233 7.0
e 48 45 67.0
e 49 284 2.0
e 49 48 1.0
e 50 115 36.0
e 50 286 14.0
e 50 49 12.0
e 51 88 1.0
e 51 50 5.0
e 52 53 6.0
e 52 51 1.0
e 54 313 1.0
e 54 52 4.0
e 55 209 1.0
e 55 54 5.0
e 56 75 1.0
e 56 55 2.0
e 58 287 2.0
e 58 56 1.0
e 59 204 73.0
e 59 231 78.0
e 59 310 52.0
e 59 305 54.0
e 59 99 58.0
e 59 58 39.0
e 60 306 1.0
e 60 59 18.0
e 61 258 3.0
e 61 60 5.0
e 62 63 5.0
e 62 61 2.0
e 65 66 2.0
e 65 62 2.0
e 67 150 4.0
e 67 65 8.0
e 68 143 24.0
e 68 70 24.0
e 68 67 5.0
e 71 73 1.0
e 71 68 19.0
e 74 255 1.0
e 74 71 4.0
e 76 77 7.0
e 76 74 5.0
e 77 205 5.0
e 78 234 44.0
e 78 76 4.0
e 80 223 45.0
e 80 221 2.0
e 80 81 84.0
e 80 129 17.0
e 80 104 11.0
e 83 84 5.0
e 83 78 3.0
e 86 288 2.0
e 86 83 1.0
e 87 89 1.0
e 87 86 2.0
e 90 107 4.0
e 90 87 1.0
e 93 275 4.0
e 93 90 2.0
e 94 219 1.0
e 94 93 1.0
e 95 96 9.0
e 95 94 8.0
e 97 175 4.0
e 97 95 1.0
e 98 99 22.0
e 100 101 22.0
e 100 252 15.0
e 100 97 15.0
e 102 293 1.0
e 102 100 8.0
e 103 194 3.0
e 103 102 1.0
e 104 312 59.0
e 104 314 40.0
e 104 105 82.0
e 104 298 64.0
e 108 314 61.0
e 109 224 1.0
e 109 103 1.0
e 110 249 1.0
e 110 109 1.0
e 111 199 1.0
e 111 110 1.0
e 115 215 17.0
e 115 116 100.0
e 115 118 28.0
e 115 119 91.0
e 120 314 20.0
e 121 122 9.0
e 121 111 11.0
e 124 289 21.0
e 124 126 24.0
e 124 127 21.0
e 124 121 41.0
e 128 129 92.0
e 128 253 87.0
e 128 131 38.0
e 128 136 92.0
e 128 182 94.0
e 132 317 78.0
e 132 124 43.0
e 133 134 5.0
e 133 132 1.0
e 135 274 23.0
e 135 183 54.0
e 135 136 26.0
e 135 153 83.0
e 135 137 21.0
e 136 280 14.0
e 140 141 2.0
e 140 133 2.0
e 142 152 10.0
e 142 145 10.0
e 142 140 22.0
e 147 208 3.0
e 147 142 23.0
e 148 163 1.0
e 148 147 1.0
e 149 189 4.0
e 149 148 5.0
e 151 290 1.0
e 151 149 2.0
e 154 155 9.0
e 154 151 2.0
e 155 164 2.0
e 156 158 1.0
e 156 154 2.0
e 159 160 22.0
e 165 166 12.0
e 165 279 19.0
e 165 211 58.0
e 165 167 81.0
e 165 168 82.0
e 169 170 1.0
e 169 156 1.0
e 171 172 3.0
e 171 169 5.0
e 174 302 3.0
e 174 171 1.0
e 176 213 6.0
e 176 174 1.0
e 177 211 31.0
e 178 246 1.0
e 178 176 1.0
e 179 184 3.0
e 179 178 3.0
e 185 187 2.0
e 185 179 4.0
e 188 197 5.0
e 188 185 3.0
e 190 264 1.0
e 190 188 1.0
e 191 212 7.0
e 191 190 2.0
e 192 214 10.0
e 192 191 1.0
e 193 198 4.0
e 193 192 4.0
e 200 225 10.0
e 200 193 1.0
e 201 277 6.0
e 201 202 20.0
e 201 291 73.0
e 201 301 13.0
e 201 273 9.0
e 201 200 6.0
e 217 220 12.0
e 217 201 91.0
e 226 227 2.0
e 226 217 1.0
e 228 229 2.0
e 228 226 1.0
e 230 232 1.0
e 230 228 1.0
e 234 238 70.0
e 234 235 25.0
e 234 236 62.0
e 234 259 30.0
e 239 240 27.0
e 240 242 10.0
e 243 244 3.0
e 243 230 2.0
e 247 276 3.0
e 248 254 50.0
e 248 256 22.0
e 248 295 64.0
e 257 260 2.0
e 257 243 2.0
e 261 262 10.0
e 261 292 10.0
e 261 257 14.0
e 263 265 6.0
e 263 261 3.0
e 266 267 1.0
e 266 263 1.0
e 268 269 20.0
e 268 294 61.0
e 268 270 66.0
e 268 276 53.0
e 268 278 2.0
e 276 278 22.0
e 276 295 46.0
e 276 296 46.0
e 278 295 71.0
e 278 297 97.0
e 278 299 96.0
e 295 301 93.0
e 295 303 6.0
e 307 314 46.0
e 315 317 40.0
e 317 318 40.0
e 317 319 28.0
